expected_failures_A=73;
expected_failures_B=63;
expected_failures_C=46;
s=3;
hints=[|
0,0,0,3,0,2,0,0,0|
0,5,0,7,9,8,0,3,0|
0,0,7,0,0,0,8,0,0|
0,0,8,6,0,7,3,0,0|
0,7,0,0,0,0,0,6,0|
0,0,3,5,0,4,1,0,0|
0,0,5,0,0,0,6,0,0|
0,2,0,4,1,9,0,5,0|
0,0,0,8,0,6,0,0,0|];
